NAME examples

ROWS
      N obj
      G c1
      G c2
      G c3
      G c4
      G c5
      G c6
      G c7
      G c8
      G c9
      G c10
      G c11
      G c12
      G c13
      G c14
      G c15
      G c16
      G c17
      G c18
      G c19
      G c20
      G c21
      G c22
      G c23
      G c24
      G c25
      G c26
      G c27
      G c28

COLUMNS
      x1  obj   1
      x1 c9 1
      x2  obj   1
      x2 c17 1
      x3  obj   1
      x3 c6 1
      x3 c16 1
      x3 c19 1
      x3 c21 1
      x3 c25 1
      x3 c26 1
      x4  obj   1
      x4 c6 1
      x4 c11 1
      x4 c16 1
      x4 c19 1
      x4 c21 1
      x4 c25 1
      x4 c26 1
      x5  obj   1
      x5 c20 1
      x6  obj   1
      x6 c19 1
      x7  obj   1
      x7 c6 1
      x7 c11 1
      x7 c16 1
      x7 c19 1
      x7 c21 1
      x7 c25 1
      x7 c26 1
      x8  obj   1
      x8 c1 1
      x8 c3 1
      x8 c4 1
      x8 c5 1
      x8 c7 1
      x8 c10 1
      x8 c12 1
      x8 c13 1
      x8 c14 1
      x8 c15 1
      x8 c17 1
      x8 c18 1
      x8 c20 1
      x8 c23 1
      x8 c24 1
      x8 c27 1
      x8 c28 1
      x9  obj   1
      x9 c2 1
      x9 c8 1
      x9 c9 1
      x9 c22 1
      x10  obj   1
      x10 c1 1
      x10 c3 1
      x10 c4 1
      x10 c5 1
      x10 c7 1
      x10 c10 1
      x10 c12 1
      x10 c13 1
      x10 c14 1
      x10 c15 1
      x10 c17 1
      x10 c18 1
      x10 c20 1
      x10 c23 1
      x10 c24 1
      x10 c27 1
      x10 c28 1
      x11  obj   1
      x11 c4 1
      x11 c10 1
      x11 c13 1
      x11 c14 1
      x11 c17 1
      x12  obj   1
      x12 c1 1
      x12 c3 1
      x12 c4 1
      x12 c5 1
      x12 c7 1
      x12 c10 1
      x12 c12 1
      x12 c13 1
      x12 c14 1
      x12 c15 1
      x12 c17 1
      x12 c18 1
      x12 c20 1
      x12 c23 1
      x12 c24 1
      x12 c27 1
      x12 c28 1
      x13  obj   1
      x13 c4 1
      x13 c10 1
      x13 c13 1
      x14  obj   1
      x14 c6 1
      x14 c11 1
      x14 c16 1
      x14 c19 1
      x14 c21 1
      x14 c25 1
      x14 c26 1
      x15  obj   1
      x15 c25 1
      x16  obj   1
      x16 c1 1
      x16 c3 1
      x16 c4 1
      x16 c5 1
      x16 c10 1
      x16 c12 1
      x16 c13 1
      x16 c14 1
      x16 c17 1
      x16 c23 1
      x16 c28 1
      x17  obj   1
      x17 c1 1
      x17 c3 1
      x17 c4 1
      x17 c10 1
      x17 c13 1
      x17 c14 1
      x17 c17 1
      x17 c23 1
      x17 c28 1
      x18  obj   1
      x18 c1 1
      x18 c3 1
      x18 c4 1
      x18 c5 1
      x18 c7 1
      x18 c10 1
      x18 c12 1
      x18 c13 1
      x18 c14 1
      x18 c15 1
      x18 c17 1
      x18 c18 1
      x18 c20 1
      x18 c23 1
      x18 c24 1
      x18 c27 1
      x18 c28 1
      x19  obj   1
      x19 c10 1
      x20  obj   1
      x20 c1 1
      x20 c3 1
      x20 c4 1
      x20 c5 1
      x20 c7 1
      x20 c10 1
      x20 c12 1
      x20 c13 1
      x20 c14 1
      x20 c15 1
      x20 c17 1
      x20 c18 1
      x20 c20 1
      x20 c23 1
      x20 c24 1
      x20 c27 1
      x20 c28 1
      x21  obj   1
      x21 c15 1
      x22  obj   1
      x22 c26 1
      x23  obj   1
      x23 c23 1
      x23 c28 1
      x24  obj   1
      x24 c22 1
      x25  obj   1
      x25 c1 1
      x25 c4 1
      x25 c5 1
      x25 c10 1
      x25 c13 1
      x25 c14 1
      x25 c17 1
      x25 c23 1
      x25 c28 1
      x26  obj   1
      x26 c6 1
      x26 c25 1
      x27  obj   1
      x27 c15 1
      x27 c18 1
      x28  obj   1
      x28 c21 1
      x29  obj   1
      x29 c6 1
      x29 c16 1
      x29 c19 1
      x29 c21 1
      x29 c25 1
      x29 c26 1
      x30  obj   1
      x30 c13 1
      x31  obj   1
      x31 c20 1
      x31 c24 1
      x31 c27 1
      x32  obj   1
      x32 c23 1
      x33  obj   1
      x33 c6 1
      x33 c11 1
      x33 c16 1
      x33 c19 1
      x33 c21 1
      x33 c25 1
      x33 c26 1
      x34  obj   1
      x34 c8 1
      x35  obj   1
      x35 c20 1
      x35 c27 1
      x36  obj   1
      x36 c1 1
      x36 c3 1
      x36 c4 1
      x36 c5 1
      x36 c7 1
      x36 c10 1
      x36 c12 1
      x36 c13 1
      x36 c14 1
      x36 c15 1
      x36 c17 1
      x36 c18 1
      x36 c20 1
      x36 c23 1
      x36 c24 1
      x36 c27 1
      x36 c28 1
      x37  obj   1
      x37 c1 1
      x37 c4 1
      x37 c10 1
      x37 c13 1
      x37 c14 1
      x37 c17 1
      x37 c23 1
      x37 c28 1
      x38  obj   1
      x38 c2 1
      x38 c8 1
      x38 c9 1
      x38 c22 1

RHS
      rhs c1  1
      rhs c2  1
      rhs c3  1
      rhs c4  1
      rhs c5  1
      rhs c6  1
      rhs c7  1
      rhs c8  1
      rhs c9  1
      rhs c10  1
      rhs c11  1
      rhs c12  1
      rhs c13  1
      rhs c14  1
      rhs c15  1
      rhs c16  1
      rhs c17  1
      rhs c18  1
      rhs c19  1
      rhs c20  1
      rhs c21  1
      rhs c22  1
      rhs c23  1
      rhs c24  1
      rhs c25  1
      rhs c26  1
      rhs c27  1
      rhs c28  1

BOUNDS
      LI bnd x1 0
      LI bnd x2 0
      LI bnd x3 0
      LI bnd x4 0
      LI bnd x5 0
      LI bnd x6 0
      LI bnd x7 0
      LI bnd x8 0
      LI bnd x9 0
      LI bnd x10 0
      LI bnd x11 0
      LI bnd x12 0
      LI bnd x13 0
      LI bnd x14 0
      LI bnd x15 0
      LI bnd x16 0
      LI bnd x17 0
      LI bnd x18 0
      LI bnd x19 0
      LI bnd x20 0
      LI bnd x21 0
      LI bnd x22 0
      LI bnd x23 0
      LI bnd x24 0
      LI bnd x25 0
      LI bnd x26 0
      LI bnd x27 0
      LI bnd x28 0
      LI bnd x29 0
      LI bnd x30 0
      LI bnd x31 0
      LI bnd x32 0
      LI bnd x33 0
      LI bnd x34 0
      LI bnd x35 0
      LI bnd x36 0
      LI bnd x37 0
      LI bnd x38 0
      UI bnd x1 1
      UI bnd x2 1
      UI bnd x3 1
      UI bnd x4 1
      UI bnd x5 1
      UI bnd x6 1
      UI bnd x7 1
      UI bnd x8 1
      UI bnd x9 1
      UI bnd x10 1
      UI bnd x11 1
      UI bnd x12 1
      UI bnd x13 1
      UI bnd x14 1
      UI bnd x15 1
      UI bnd x16 1
      UI bnd x17 1
      UI bnd x18 1
      UI bnd x19 1
      UI bnd x20 1
      UI bnd x21 1
      UI bnd x22 1
      UI bnd x23 1
      UI bnd x24 1
      UI bnd x25 1
      UI bnd x26 1
      UI bnd x27 1
      UI bnd x28 1
      UI bnd x29 1
      UI bnd x30 1
      UI bnd x31 1
      UI bnd x32 1
      UI bnd x33 1
      UI bnd x34 1
      UI bnd x35 1
      UI bnd x36 1
      UI bnd x37 1
      UI bnd x38 1

ENDATA